data/lp_files/q3/104_2.lp
\ Model foo
\ LP format - for model browsing. Use MPS format to capture full model detail.
Minimize
  z
Subject To
 allocateEach[1]: x[1,1] + x[2,1] + x[3,1] + x[4,1] + x[5,1] + x[6,1] = 1
 allocateEach[2]: x[1,2] + x[2,2] + x[3,2] + x[4,2] + x[5,2] + x[6,2] = 1
 allocateEach[3]: x[1,3] + x[2,3] + x[3,3] + x[4,3] + x[5,3] + x[6,3] = 1
 allocateEach[4]: x[1,4] + x[2,4] + x[3,4] + x[4,4] + x[5,4] + x[6,4] = 1
 allocateAllCash: cashProportion[1] + cashProportion[2] + cashProportion[3]
   + cashProportion[4] + cashProportion[5] + cashProportion[6] = 1
 findWorstP[1,2]: z + 0.0441605087290606 cashProportion[1]
   - 0.0441605087290606 cashProportion[2] + 0.1548856242823917 x[1,1]
   + 0.2817146053522537 x[1,2] + 0.2882798009833073 x[1,3]
   + 0.2309594606529867 x[1,4] - 0.1548856242823917 x[2,1]
   - 0.2817146053522537 x[2,2] - 0.2882798009833073 x[2,3]
   - 0.2309594606529867 x[2,4] >= 0
 findWorstP[1,3]: z + 0.0441605087290606 cashProportion[1]
   - 0.0441605087290606 cashProportion[3] + 0.1548856242823917 x[1,1]
   + 0.2817146053522537 x[1,2] + 0.2882798009833073 x[1,3]
   + 0.2309594606529867 x[1,4] - 0.1548856242823917 x[3,1]
   - 0.2817146053522537 x[3,2] - 0.2882798009833073 x[3,3]
   - 0.2309594606529867 x[3,4] >= 0
 findWorstP[1,4]: z + 0.0441605087290606 cashProportion[1]
   - 0.0441605087290606 cashProportion[4] + 0.1548856242823917 x[1,1]
   + 0.2817146053522537 x[1,2] + 0.2882798009833073 x[1,3]
   + 0.2309594606529867 x[1,4] - 0.1548856242823917 x[4,1]
   - 0.2817146053522537 x[4,2] - 0.2882798009833073 x[4,3]
   - 0.2309594606529867 x[4,4] >= 0
 findWorstP[1,5]: z + 0.0441605087290606 cashProportion[1]
   - 0.0441605087290606 cashProportion[5] + 0.1548856242823917 x[1,1]
   + 0.2817146053522537 x[1,2] + 0.2882798009833073 x[1,3]
   + 0.2309594606529867 x[1,4] - 0.1548856242823917 x[5,1]
   - 0.2817146053522537 x[5,2] - 0.2882798009833073 x[5,3]
   - 0.2309594606529867 x[5,4] >= 0
 findWorstP[1,6]: z + 0.0441605087290606 cashProportion[1]
   - 0.0441605087290606 cashProportion[6] + 0.1548856242823917 x[1,1]
   + 0.2817146053522537 x[1,2] + 0.2882798009833073 x[1,3]
   + 0.2309594606529867 x[1,4] - 0.1548856242823917 x[6,1]
   - 0.2817146053522537 x[6,2] - 0.2882798009833073 x[6,3]
   - 0.2309594606529867 x[6,4] >= 0
 findWorstP[2,1]: z - 0.0588235294117647 cashProportion[1]
   + 0.0588235294117647 cashProportion[2] - 0.346 x[1,1]
   - 0.2617254901960784 x[1,2] - 0.259529411764706 x[1,3]
   - 0.073921568627451 x[1,4] + 0.346 x[2,1] + 0.2617254901960784 x[2,2]
   + 0.259529411764706 x[2,3] + 0.073921568627451 x[2,4] >= 0
 findWorstP[2,3]: z + 0.0588235294117647 cashProportion[2]
   - 0.0588235294117647 cashProportion[3] + 0.346 x[2,1]
   + 0.2617254901960784 x[2,2] + 0.259529411764706 x[2,3]
   + 0.073921568627451 x[2,4] - 0.346 x[3,1] - 0.2617254901960784 x[3,2]
   - 0.259529411764706 x[3,3] - 0.073921568627451 x[3,4] >= 0
 findWorstP[2,4]: z + 0.0588235294117647 cashProportion[2]
   - 0.0588235294117647 cashProportion[4] + 0.346 x[2,1]
   + 0.2617254901960784 x[2,2] + 0.259529411764706 x[2,3]
   + 0.073921568627451 x[2,4] - 0.346 x[4,1] - 0.2617254901960784 x[4,2]
   - 0.259529411764706 x[4,3] - 0.073921568627451 x[4,4] >= 0
 findWorstP[2,5]: z + 0.0588235294117647 cashProportion[2]
   - 0.0588235294117647 cashProportion[5] + 0.346 x[2,1]
   + 0.2617254901960784 x[2,2] + 0.259529411764706 x[2,3]
   + 0.073921568627451 x[2,4] - 0.346 x[5,1] - 0.2617254901960784 x[5,2]
   - 0.259529411764706 x[5,3] - 0.073921568627451 x[5,4] >= 0
 findWorstP[2,6]: z + 0.0588235294117647 cashProportion[2]
   - 0.0588235294117647 cashProportion[6] + 0.346 x[2,1]
   + 0.2617254901960784 x[2,2] + 0.259529411764706 x[2,3]
   + 0.073921568627451 x[2,4] - 0.346 x[6,1] - 0.2617254901960784 x[6,2]
   - 0.259529411764706 x[6,3] - 0.073921568627451 x[6,4] >= 0
 findWorstP[3,1]: z - 0.0544978927481471 cashProportion[1]
   + 0.0544978927481471 cashProportion[3] - 0.2699825606743205 x[1,1]
   - 0.1885990408370876 x[1,2] - 0.1742479290800756 x[1,3]
   - 0.3126725766603691 x[1,4] + 0.2699825606743205 x[3,1]
   + 0.1885990408370876 x[3,2] + 0.1742479290800756 x[3,3]
   + 0.3126725766603691 x[3,4] >= 0
 findWorstP[3,2]: z - 0.0544978927481471 cashProportion[2]
   + 0.0544978927481471 cashProportion[3] - 0.2699825606743205 x[2,1]
   - 0.1885990408370876 x[2,2] - 0.1742479290800756 x[2,3]
   - 0.3126725766603691 x[2,4] + 0.2699825606743205 x[3,1]
   + 0.1885990408370876 x[3,2] + 0.1742479290800756 x[3,3]
   + 0.3126725766603691 x[3,4] >= 0
 findWorstP[3,4]: z + 0.0544978927481471 cashProportion[3]
   - 0.0544978927481471 cashProportion[4] + 0.2699825606743205 x[3,1]
   + 0.1885990408370876 x[3,2] + 0.1742479290800756 x[3,3]
   + 0.3126725766603691 x[3,4] - 0.2699825606743205 x[4,1]
   - 0.1885990408370876 x[4,2] - 0.1742479290800756 x[4,3]
   - 0.3126725766603691 x[4,4] >= 0
 findWorstP[3,5]: z + 0.0544978927481471 cashProportion[3]
   - 0.0544978927481471 cashProportion[5] + 0.2699825606743205 x[3,1]
   + 0.1885990408370876 x[3,2] + 0.1742479290800756 x[3,3]
   + 0.3126725766603691 x[3,4] - 0.2699825606743205 x[5,1]
   - 0.1885990408370876 x[5,2] - 0.1742479290800756 x[5,3]
   - 0.3126725766603691 x[5,4] >= 0
 findWorstP[3,6]: z + 0.0544978927481471 cashProportion[3]
   - 0.0544978927481471 cashProportion[6] + 0.2699825606743205 x[3,1]
   + 0.1885990408370876 x[3,2] + 0.1742479290800756 x[3,3]
   + 0.3126725766603691 x[3,4] - 0.2699825606743205 x[6,1]
   - 0.1885990408370876 x[6,2] - 0.1742479290800756 x[6,3]
   - 0.3126725766603691 x[6,4] >= 0
 findWorstP[4,1]: z - 0.0858811405015459 cashProportion[1]
   + 0.0858811405015459 cashProportion[4] - 0.00389327836940341 x[1,1]
   - 0.4385663574945609 x[1,2] - 0.1599106836138784 x[1,3]
   - 0.3117485400206115 x[1,4] + 0.00389327836940341 x[4,1]
   + 0.4385663574945609 x[4,2] + 0.1599106836138784 x[4,3]
   + 0.3117485400206115 x[4,4] >= 0
 findWorstP[4,2]: z - 0.0858811405015459 cashProportion[2]
   + 0.0858811405015459 cashProportion[4] - 0.00389327836940341 x[2,1]
   - 0.4385663574945609 x[2,2] - 0.1599106836138784 x[2,3]
   - 0.3117485400206115 x[2,4] + 0.00389327836940341 x[4,1]
   + 0.4385663574945609 x[4,2] + 0.1599106836138784 x[4,3]
   + 0.3117485400206115 x[4,4] >= 0
 findWorstP[4,3]: z - 0.0858811405015459 cashProportion[3]
   + 0.0858811405015459 cashProportion[4] - 0.00389327836940341 x[3,1]
   - 0.4385663574945609 x[3,2] - 0.1599106836138784 x[3,3]
   - 0.3117485400206115 x[3,4] + 0.00389327836940341 x[4,1]
   + 0.4385663574945609 x[4,2] + 0.1599106836138784 x[4,3]
   + 0.3117485400206115 x[4,4] >= 0
 findWorstP[4,5]: z + 0.0858811405015459 cashProportion[4]
   - 0.0858811405015459 cashProportion[5] + 0.00389327836940341 x[4,1]
   + 0.4385663574945609 x[4,2] + 0.1599106836138784 x[4,3]
   + 0.3117485400206115 x[4,4] - 0.00389327836940341 x[5,1]
   - 0.4385663574945609 x[5,2] - 0.1599106836138784 x[5,3]
   - 0.3117485400206115 x[5,4] >= 0
 findWorstP[4,6]: z + 0.0858811405015459 cashProportion[4]
   - 0.0858811405015459 cashProportion[6] + 0.00389327836940341 x[4,1]
   + 0.4385663574945609 x[4,2] + 0.1599106836138784 x[4,3]
   + 0.3117485400206115 x[4,4] - 0.00389327836940341 x[6,1]
   - 0.4385663574945609 x[6,2] - 0.1599106836138784 x[6,3]
   - 0.3117485400206115 x[6,4] >= 0
 findWorstP[5,1]: z - 0.0526315789473684 cashProportion[1]
   + 0.0526315789473684 cashProportion[5] - 0.0649473684210526 x[1,1]
   - 0.3071578947368421 x[1,2] - 0.2274385964912281 x[1,3]
   - 0.3478245614035088 x[1,4] + 0.0649473684210526 x[5,1]
   + 0.3071578947368421 x[5,2] + 0.2274385964912281 x[5,3]
   + 0.3478245614035088 x[5,4] >= 0
 findWorstP[5,2]: z - 0.0526315789473684 cashProportion[2]
   + 0.0526315789473684 cashProportion[5] - 0.0649473684210526 x[2,1]
   - 0.3071578947368421 x[2,2] - 0.2274385964912281 x[2,3]
   - 0.3478245614035088 x[2,4] + 0.0649473684210526 x[5,1]
   + 0.3071578947368421 x[5,2] + 0.2274385964912281 x[5,3]
   + 0.3478245614035088 x[5,4] >= 0
 findWorstP[5,3]: z - 0.0526315789473684 cashProportion[3]
   + 0.0526315789473684 cashProportion[5] - 0.0649473684210526 x[3,1]
   - 0.3071578947368421 x[3,2] - 0.2274385964912281 x[3,3]
   - 0.3478245614035088 x[3,4] + 0.0649473684210526 x[5,1]
   + 0.3071578947368421 x[5,2] + 0.2274385964912281 x[5,3]
   + 0.3478245614035088 x[5,4] >= 0
 findWorstP[5,4]: z - 0.0526315789473684 cashProportion[4]
   + 0.0526315789473684 cashProportion[5] - 0.0649473684210526 x[4,1]
   - 0.3071578947368421 x[4,2] - 0.2274385964912281 x[4,3]
   - 0.3478245614035088 x[4,4] + 0.0649473684210526 x[5,1]
   + 0.3071578947368421 x[5,2] + 0.2274385964912281 x[5,3]
   + 0.3478245614035088 x[5,4] >= 0
 findWorstP[5,6]: z + 0.0526315789473684 cashProportion[5]
   - 0.0526315789473684 cashProportion[6] + 0.0649473684210526 x[5,1]
   + 0.3071578947368421 x[5,2] + 0.2274385964912281 x[5,3]
   + 0.3478245614035088 x[5,4] - 0.0649473684210526 x[6,1]
   - 0.3071578947368421 x[6,2] - 0.2274385964912281 x[6,3]
   - 0.3478245614035088 x[6,4] >= 0
 findWorstP[6,1]: z - 0.051799157400373 cashProportion[1]
   + 0.051799157400373 cashProportion[6] - 0.2758132467711858 x[1,1]
   - 0.303473996822985 x[1,2] - 0.2559569031010429 x[1,3]
   - 0.1129566959044133 x[1,4] + 0.2758132467711858 x[6,1]
   + 0.303473996822985 x[6,2] + 0.2559569031010429 x[6,3]
   + 0.1129566959044133 x[6,4] >= 0
 findWorstP[6,2]: z - 0.051799157400373 cashProportion[2]
   + 0.051799157400373 cashProportion[6] - 0.2758132467711858 x[2,1]
   - 0.303473996822985 x[2,2] - 0.2559569031010429 x[2,3]
   - 0.1129566959044133 x[2,4] + 0.2758132467711858 x[6,1]
   + 0.303473996822985 x[6,2] + 0.2559569031010429 x[6,3]
   + 0.1129566959044133 x[6,4] >= 0
 findWorstP[6,3]: z - 0.051799157400373 cashProportion[3]
   + 0.051799157400373 cashProportion[6] - 0.2758132467711858 x[3,1]
   - 0.303473996822985 x[3,2] - 0.2559569031010429 x[3,3]
   - 0.1129566959044133 x[3,4] + 0.2758132467711858 x[6,1]
   + 0.303473996822985 x[6,2] + 0.2559569031010429 x[6,3]
   + 0.1129566959044133 x[6,4] >= 0
 findWorstP[6,4]: z - 0.051799157400373 cashProportion[4]
   + 0.051799157400373 cashProportion[6] - 0.2758132467711858 x[4,1]
   - 0.303473996822985 x[4,2] - 0.2559569031010429 x[4,3]
   - 0.1129566959044133 x[4,4] + 0.2758132467711858 x[6,1]
   + 0.303473996822985 x[6,2] + 0.2559569031010429 x[6,3]
   + 0.1129566959044133 x[6,4] >= 0
 findWorstP[6,5]: z - 0.051799157400373 cashProportion[5]
   + 0.051799157400373 cashProportion[6] - 0.2758132467711858 x[5,1]
   - 0.303473996822985 x[5,2] - 0.2559569031010429 x[5,3]
   - 0.1129566959044133 x[5,4] + 0.2758132467711858 x[6,1]
   + 0.303473996822985 x[6,2] + 0.2559569031010429 x[6,3]
   + 0.1129566959044133 x[6,4] >= 0
Bounds
 z <= 1
 -infinity <= cashProportion[1] <= 1
 -infinity <= cashProportion[2] <= 1
 -infinity <= cashProportion[3] <= 1
 -infinity <= cashProportion[4] <= 1
 -infinity <= cashProportion[5] <= 1
 -infinity <= cashProportion[6] <= 1
Binaries
 x[1,1] x[1,2] x[1,3] x[1,4] x[2,1] x[2,2] x[2,3] x[2,4] x[3,1] x[3,2]
 x[3,3] x[3,4] x[4,1] x[4,2] x[4,3] x[4,4] x[5,1] x[5,2] x[5,3] x[5,4]
 x[6,1] x[6,2] x[6,3] x[6,4]
End
