data/mps_files/q3/104_2.mps
NAME foo
ROWS
 N  OBJ
 E  allocateEach[1]
 E  allocateEach[2]
 E  allocateEach[3]
 E  allocateEach[4]
 E  allocateAllCash
 G  findWorstP[1,2]
 G  findWorstP[1,3]
 G  findWorstP[1,4]
 G  findWorstP[1,5]
 G  findWorstP[1,6]
 G  findWorstP[2,1]
 G  findWorstP[2,3]
 G  findWorstP[2,4]
 G  findWorstP[2,5]
 G  findWorstP[2,6]
 G  findWorstP[3,1]
 G  findWorstP[3,2]
 G  findWorstP[3,4]
 G  findWorstP[3,5]
 G  findWorstP[3,6]
 G  findWorstP[4,1]
 G  findWorstP[4,2]
 G  findWorstP[4,3]
 G  findWorstP[4,5]
 G  findWorstP[4,6]
 G  findWorstP[5,1]
 G  findWorstP[5,2]
 G  findWorstP[5,3]
 G  findWorstP[5,4]
 G  findWorstP[5,6]
 G  findWorstP[6,1]
 G  findWorstP[6,2]
 G  findWorstP[6,3]
 G  findWorstP[6,4]
 G  findWorstP[6,5]
COLUMNS
    z         OBJ       1
    z         findWorstP[1,2]  1
    z         findWorstP[1,3]  1
    z         findWorstP[1,4]  1
    z         findWorstP[1,5]  1
    z         findWorstP[1,6]  1
    z         findWorstP[2,1]  1
    z         findWorstP[2,3]  1
    z         findWorstP[2,4]  1
    z         findWorstP[2,5]  1
    z         findWorstP[2,6]  1
    z         findWorstP[3,1]  1
    z         findWorstP[3,2]  1
    z         findWorstP[3,4]  1
    z         findWorstP[3,5]  1
    z         findWorstP[3,6]  1
    z         findWorstP[4,1]  1
    z         findWorstP[4,2]  1
    z         findWorstP[4,3]  1
    z         findWorstP[4,5]  1
    z         findWorstP[4,6]  1
    z         findWorstP[5,1]  1
    z         findWorstP[5,2]  1
    z         findWorstP[5,3]  1
    z         findWorstP[5,4]  1
    z         findWorstP[5,6]  1
    z         findWorstP[6,1]  1
    z         findWorstP[6,2]  1
    z         findWorstP[6,3]  1
    z         findWorstP[6,4]  1
    z         findWorstP[6,5]  1
    cashProportion[1]  allocateAllCash  1
    cashProportion[1]  findWorstP[1,2]  4.4160508729060570e-02
    cashProportion[1]  findWorstP[1,3]  4.4160508729060570e-02
    cashProportion[1]  findWorstP[1,4]  4.4160508729060570e-02
    cashProportion[1]  findWorstP[1,5]  4.4160508729060570e-02
    cashProportion[1]  findWorstP[1,6]  4.4160508729060570e-02
    cashProportion[1]  findWorstP[2,1]  -5.8823529411764719e-02
    cashProportion[1]  findWorstP[3,1]  -5.4497892748147071e-02
    cashProportion[1]  findWorstP[4,1]  -8.5881140501545883e-02
    cashProportion[1]  findWorstP[5,1]  -5.2631578947368432e-02
    cashProportion[1]  findWorstP[6,1]  -5.1799157400372962e-02
    cashProportion[2]  allocateAllCash  1
    cashProportion[2]  findWorstP[1,2]  -4.4160508729060570e-02
    cashProportion[2]  findWorstP[2,1]  5.8823529411764719e-02
    cashProportion[2]  findWorstP[2,3]  5.8823529411764719e-02
    cashProportion[2]  findWorstP[2,4]  5.8823529411764719e-02
    cashProportion[2]  findWorstP[2,5]  5.8823529411764719e-02
    cashProportion[2]  findWorstP[2,6]  5.8823529411764719e-02
    cashProportion[2]  findWorstP[3,2]  -5.4497892748147071e-02
    cashProportion[2]  findWorstP[4,2]  -8.5881140501545883e-02
    cashProportion[2]  findWorstP[5,2]  -5.2631578947368432e-02
    cashProportion[2]  findWorstP[6,2]  -5.1799157400372962e-02
    cashProportion[3]  allocateAllCash  1
    cashProportion[3]  findWorstP[1,3]  -4.4160508729060570e-02
    cashProportion[3]  findWorstP[2,3]  -5.8823529411764719e-02
    cashProportion[3]  findWorstP[3,1]  5.4497892748147071e-02
    cashProportion[3]  findWorstP[3,2]  5.4497892748147071e-02
    cashProportion[3]  findWorstP[3,4]  5.4497892748147071e-02
    cashProportion[3]  findWorstP[3,5]  5.4497892748147071e-02
    cashProportion[3]  findWorstP[3,6]  5.4497892748147071e-02
    cashProportion[3]  findWorstP[4,3]  -8.5881140501545883e-02
    cashProportion[3]  findWorstP[5,3]  -5.2631578947368432e-02
    cashProportion[3]  findWorstP[6,3]  -5.1799157400372962e-02
    cashProportion[4]  allocateAllCash  1
    cashProportion[4]  findWorstP[1,4]  -4.4160508729060570e-02
    cashProportion[4]  findWorstP[2,4]  -5.8823529411764719e-02
    cashProportion[4]  findWorstP[3,4]  -5.4497892748147071e-02
    cashProportion[4]  findWorstP[4,1]  8.5881140501545883e-02
    cashProportion[4]  findWorstP[4,2]  8.5881140501545883e-02
    cashProportion[4]  findWorstP[4,3]  8.5881140501545883e-02
    cashProportion[4]  findWorstP[4,5]  8.5881140501545883e-02
    cashProportion[4]  findWorstP[4,6]  8.5881140501545883e-02
    cashProportion[4]  findWorstP[5,4]  -5.2631578947368432e-02
    cashProportion[4]  findWorstP[6,4]  -5.1799157400372962e-02
    cashProportion[5]  allocateAllCash  1
    cashProportion[5]  findWorstP[1,5]  -4.4160508729060570e-02
    cashProportion[5]  findWorstP[2,5]  -5.8823529411764719e-02
    cashProportion[5]  findWorstP[3,5]  -5.4497892748147071e-02
    cashProportion[5]  findWorstP[4,5]  -8.5881140501545883e-02
    cashProportion[5]  findWorstP[5,1]  5.2631578947368432e-02
    cashProportion[5]  findWorstP[5,2]  5.2631578947368432e-02
    cashProportion[5]  findWorstP[5,3]  5.2631578947368432e-02
    cashProportion[5]  findWorstP[5,4]  5.2631578947368432e-02
    cashProportion[5]  findWorstP[5,6]  5.2631578947368432e-02
    cashProportion[5]  findWorstP[6,5]  -5.1799157400372962e-02
    cashProportion[6]  allocateAllCash  1
    cashProportion[6]  findWorstP[1,6]  -4.4160508729060570e-02
    cashProportion[6]  findWorstP[2,6]  -5.8823529411764719e-02
    cashProportion[6]  findWorstP[3,6]  -5.4497892748147071e-02
    cashProportion[6]  findWorstP[4,6]  -8.5881140501545883e-02
    cashProportion[6]  findWorstP[5,6]  -5.2631578947368432e-02
    cashProportion[6]  findWorstP[6,1]  5.1799157400372962e-02
    cashProportion[6]  findWorstP[6,2]  5.1799157400372962e-02
    cashProportion[6]  findWorstP[6,3]  5.1799157400372962e-02
    cashProportion[6]  findWorstP[6,4]  5.1799157400372962e-02
    cashProportion[6]  findWorstP[6,5]  5.1799157400372962e-02
    MARKER    'MARKER'                 'INTORG'
    x[1,1]    allocateEach[1]  1
    x[1,1]    findWorstP[1,2]  1.5488562428239175e-01
    x[1,1]    findWorstP[1,3]  1.5488562428239175e-01
    x[1,1]    findWorstP[1,4]  1.5488562428239175e-01
    x[1,1]    findWorstP[1,5]  1.5488562428239175e-01
    x[1,1]    findWorstP[1,6]  1.5488562428239175e-01
    x[1,1]    findWorstP[2,1]  -3.4600000000000003e-01
    x[1,1]    findWorstP[3,1]  -2.6998256067432053e-01
    x[1,1]    findWorstP[4,1]  -3.8932783694034128e-03
    x[1,1]    findWorstP[5,1]  -6.4947368421052629e-02
    x[1,1]    findWorstP[6,1]  -2.7581324677118585e-01
    x[1,2]    allocateEach[2]  1
    x[1,2]    findWorstP[1,2]  2.8171460535225368e-01
    x[1,2]    findWorstP[1,3]  2.8171460535225368e-01
    x[1,2]    findWorstP[1,4]  2.8171460535225368e-01
    x[1,2]    findWorstP[1,5]  2.8171460535225368e-01
    x[1,2]    findWorstP[1,6]  2.8171460535225368e-01
    x[1,2]    findWorstP[2,1]  -2.6172549019607844e-01
    x[1,2]    findWorstP[3,1]  -1.8859904083708762e-01
    x[1,2]    findWorstP[4,1]  -4.3856635749456091e-01
    x[1,2]    findWorstP[5,1]  -3.0715789473684213e-01
    x[1,2]    findWorstP[6,1]  -3.0347399682298504e-01
    x[1,3]    allocateEach[3]  1
    x[1,3]    findWorstP[1,2]  2.8827980098330730e-01
    x[1,3]    findWorstP[1,3]  2.8827980098330730e-01
    x[1,3]    findWorstP[1,4]  2.8827980098330730e-01
    x[1,3]    findWorstP[1,5]  2.8827980098330730e-01
    x[1,3]    findWorstP[1,6]  2.8827980098330730e-01
    x[1,3]    findWorstP[2,1]  -2.5952941176470595e-01
    x[1,3]    findWorstP[3,1]  -1.7424792908007555e-01
    x[1,3]    findWorstP[4,1]  -1.5991068361387842e-01
    x[1,3]    findWorstP[5,1]  -2.2743859649122811e-01
    x[1,3]    findWorstP[6,1]  -2.5595690310104285e-01
    x[1,4]    allocateEach[4]  1
    x[1,4]    findWorstP[1,2]  2.3095946065298673e-01
    x[1,4]    findWorstP[1,3]  2.3095946065298673e-01
    x[1,4]    findWorstP[1,4]  2.3095946065298673e-01
    x[1,4]    findWorstP[1,5]  2.3095946065298673e-01
    x[1,4]    findWorstP[1,6]  2.3095946065298673e-01
    x[1,4]    findWorstP[2,1]  -7.3921568627450987e-02
    x[1,4]    findWorstP[3,1]  -3.1267257666036913e-01
    x[1,4]    findWorstP[4,1]  -3.1174854002061153e-01
    x[1,4]    findWorstP[5,1]  -3.4782456140350881e-01
    x[1,4]    findWorstP[6,1]  -1.1295669590441329e-01
    x[2,1]    allocateEach[1]  1
    x[2,1]    findWorstP[1,2]  -1.5488562428239175e-01
    x[2,1]    findWorstP[2,1]  3.4600000000000003e-01
    x[2,1]    findWorstP[2,3]  3.4600000000000003e-01
    x[2,1]    findWorstP[2,4]  3.4600000000000003e-01
    x[2,1]    findWorstP[2,5]  3.4600000000000003e-01
    x[2,1]    findWorstP[2,6]  3.4600000000000003e-01
    x[2,1]    findWorstP[3,2]  -2.6998256067432053e-01
    x[2,1]    findWorstP[4,2]  -3.8932783694034128e-03
    x[2,1]    findWorstP[5,2]  -6.4947368421052629e-02
    x[2,1]    findWorstP[6,2]  -2.7581324677118585e-01
    x[2,2]    allocateEach[2]  1
    x[2,2]    findWorstP[1,2]  -2.8171460535225368e-01
    x[2,2]    findWorstP[2,1]  2.6172549019607844e-01
    x[2,2]    findWorstP[2,3]  2.6172549019607844e-01
    x[2,2]    findWorstP[2,4]  2.6172549019607844e-01
    x[2,2]    findWorstP[2,5]  2.6172549019607844e-01
    x[2,2]    findWorstP[2,6]  2.6172549019607844e-01
    x[2,2]    findWorstP[3,2]  -1.8859904083708762e-01
    x[2,2]    findWorstP[4,2]  -4.3856635749456091e-01
    x[2,2]    findWorstP[5,2]  -3.0715789473684213e-01
    x[2,2]    findWorstP[6,2]  -3.0347399682298504e-01
    x[2,3]    allocateEach[3]  1
    x[2,3]    findWorstP[1,2]  -2.8827980098330730e-01
    x[2,3]    findWorstP[2,1]  2.5952941176470595e-01
    x[2,3]    findWorstP[2,3]  2.5952941176470595e-01
    x[2,3]    findWorstP[2,4]  2.5952941176470595e-01
    x[2,3]    findWorstP[2,5]  2.5952941176470595e-01
    x[2,3]    findWorstP[2,6]  2.5952941176470595e-01
    x[2,3]    findWorstP[3,2]  -1.7424792908007555e-01
    x[2,3]    findWorstP[4,2]  -1.5991068361387842e-01
    x[2,3]    findWorstP[5,2]  -2.2743859649122811e-01
    x[2,3]    findWorstP[6,2]  -2.5595690310104285e-01
    x[2,4]    allocateEach[4]  1
    x[2,4]    findWorstP[1,2]  -2.3095946065298673e-01
    x[2,4]    findWorstP[2,1]  7.3921568627450987e-02
    x[2,4]    findWorstP[2,3]  7.3921568627450987e-02
    x[2,4]    findWorstP[2,4]  7.3921568627450987e-02
    x[2,4]    findWorstP[2,5]  7.3921568627450987e-02
    x[2,4]    findWorstP[2,6]  7.3921568627450987e-02
    x[2,4]    findWorstP[3,2]  -3.1267257666036913e-01
    x[2,4]    findWorstP[4,2]  -3.1174854002061153e-01
    x[2,4]    findWorstP[5,2]  -3.4782456140350881e-01
    x[2,4]    findWorstP[6,2]  -1.1295669590441329e-01
    x[3,1]    allocateEach[1]  1
    x[3,1]    findWorstP[1,3]  -1.5488562428239175e-01
    x[3,1]    findWorstP[2,3]  -3.4600000000000003e-01
    x[3,1]    findWorstP[3,1]  2.6998256067432053e-01
    x[3,1]    findWorstP[3,2]  2.6998256067432053e-01
    x[3,1]    findWorstP[3,4]  2.6998256067432053e-01
    x[3,1]    findWorstP[3,5]  2.6998256067432053e-01
    x[3,1]    findWorstP[3,6]  2.6998256067432053e-01
    x[3,1]    findWorstP[4,3]  -3.8932783694034128e-03
    x[3,1]    findWorstP[5,3]  -6.4947368421052629e-02
    x[3,1]    findWorstP[6,3]  -2.7581324677118585e-01
    x[3,2]    allocateEach[2]  1
    x[3,2]    findWorstP[1,3]  -2.8171460535225368e-01
    x[3,2]    findWorstP[2,3]  -2.6172549019607844e-01
    x[3,2]    findWorstP[3,1]  1.8859904083708762e-01
    x[3,2]    findWorstP[3,2]  1.8859904083708762e-01
    x[3,2]    findWorstP[3,4]  1.8859904083708762e-01
    x[3,2]    findWorstP[3,5]  1.8859904083708762e-01
    x[3,2]    findWorstP[3,6]  1.8859904083708762e-01
    x[3,2]    findWorstP[4,3]  -4.3856635749456091e-01
    x[3,2]    findWorstP[5,3]  -3.0715789473684213e-01
    x[3,2]    findWorstP[6,3]  -3.0347399682298504e-01
    x[3,3]    allocateEach[3]  1
    x[3,3]    findWorstP[1,3]  -2.8827980098330730e-01
    x[3,3]    findWorstP[2,3]  -2.5952941176470595e-01
    x[3,3]    findWorstP[3,1]  1.7424792908007555e-01
    x[3,3]    findWorstP[3,2]  1.7424792908007555e-01
    x[3,3]    findWorstP[3,4]  1.7424792908007555e-01
    x[3,3]    findWorstP[3,5]  1.7424792908007555e-01
    x[3,3]    findWorstP[3,6]  1.7424792908007555e-01
    x[3,3]    findWorstP[4,3]  -1.5991068361387842e-01
    x[3,3]    findWorstP[5,3]  -2.2743859649122811e-01
    x[3,3]    findWorstP[6,3]  -2.5595690310104285e-01
    x[3,4]    allocateEach[4]  1
    x[3,4]    findWorstP[1,3]  -2.3095946065298673e-01
    x[3,4]    findWorstP[2,3]  -7.3921568627450987e-02
    x[3,4]    findWorstP[3,1]  3.1267257666036913e-01
    x[3,4]    findWorstP[3,2]  3.1267257666036913e-01
    x[3,4]    findWorstP[3,4]  3.1267257666036913e-01
    x[3,4]    findWorstP[3,5]  3.1267257666036913e-01
    x[3,4]    findWorstP[3,6]  3.1267257666036913e-01
    x[3,4]    findWorstP[4,3]  -3.1174854002061153e-01
    x[3,4]    findWorstP[5,3]  -3.4782456140350881e-01
    x[3,4]    findWorstP[6,3]  -1.1295669590441329e-01
    x[4,1]    allocateEach[1]  1
    x[4,1]    findWorstP[1,4]  -1.5488562428239175e-01
    x[4,1]    findWorstP[2,4]  -3.4600000000000003e-01
    x[4,1]    findWorstP[3,4]  -2.6998256067432053e-01
    x[4,1]    findWorstP[4,1]  3.8932783694034128e-03
    x[4,1]    findWorstP[4,2]  3.8932783694034128e-03
    x[4,1]    findWorstP[4,3]  3.8932783694034128e-03
    x[4,1]    findWorstP[4,5]  3.8932783694034128e-03
    x[4,1]    findWorstP[4,6]  3.8932783694034128e-03
    x[4,1]    findWorstP[5,4]  -6.4947368421052629e-02
    x[4,1]    findWorstP[6,4]  -2.7581324677118585e-01
    x[4,2]    allocateEach[2]  1
    x[4,2]    findWorstP[1,4]  -2.8171460535225368e-01
    x[4,2]    findWorstP[2,4]  -2.6172549019607844e-01
    x[4,2]    findWorstP[3,4]  -1.8859904083708762e-01
    x[4,2]    findWorstP[4,1]  4.3856635749456091e-01
    x[4,2]    findWorstP[4,2]  4.3856635749456091e-01
    x[4,2]    findWorstP[4,3]  4.3856635749456091e-01
    x[4,2]    findWorstP[4,5]  4.3856635749456091e-01
    x[4,2]    findWorstP[4,6]  4.3856635749456091e-01
    x[4,2]    findWorstP[5,4]  -3.0715789473684213e-01
    x[4,2]    findWorstP[6,4]  -3.0347399682298504e-01
    x[4,3]    allocateEach[3]  1
    x[4,3]    findWorstP[1,4]  -2.8827980098330730e-01
    x[4,3]    findWorstP[2,4]  -2.5952941176470595e-01
    x[4,3]    findWorstP[3,4]  -1.7424792908007555e-01
    x[4,3]    findWorstP[4,1]  1.5991068361387842e-01
    x[4,3]    findWorstP[4,2]  1.5991068361387842e-01
    x[4,3]    findWorstP[4,3]  1.5991068361387842e-01
    x[4,3]    findWorstP[4,5]  1.5991068361387842e-01
    x[4,3]    findWorstP[4,6]  1.5991068361387842e-01
    x[4,3]    findWorstP[5,4]  -2.2743859649122811e-01
    x[4,3]    findWorstP[6,4]  -2.5595690310104285e-01
    x[4,4]    allocateEach[4]  1
    x[4,4]    findWorstP[1,4]  -2.3095946065298673e-01
    x[4,4]    findWorstP[2,4]  -7.3921568627450987e-02
    x[4,4]    findWorstP[3,4]  -3.1267257666036913e-01
    x[4,4]    findWorstP[4,1]  3.1174854002061153e-01
    x[4,4]    findWorstP[4,2]  3.1174854002061153e-01
    x[4,4]    findWorstP[4,3]  3.1174854002061153e-01
    x[4,4]    findWorstP[4,5]  3.1174854002061153e-01
    x[4,4]    findWorstP[4,6]  3.1174854002061153e-01
    x[4,4]    findWorstP[5,4]  -3.4782456140350881e-01
    x[4,4]    findWorstP[6,4]  -1.1295669590441329e-01
    x[5,1]    allocateEach[1]  1
    x[5,1]    findWorstP[1,5]  -1.5488562428239175e-01
    x[5,1]    findWorstP[2,5]  -3.4600000000000003e-01
    x[5,1]    findWorstP[3,5]  -2.6998256067432053e-01
    x[5,1]    findWorstP[4,5]  -3.8932783694034128e-03
    x[5,1]    findWorstP[5,1]  6.4947368421052629e-02
    x[5,1]    findWorstP[5,2]  6.4947368421052629e-02
    x[5,1]    findWorstP[5,3]  6.4947368421052629e-02
    x[5,1]    findWorstP[5,4]  6.4947368421052629e-02
    x[5,1]    findWorstP[5,6]  6.4947368421052629e-02
    x[5,1]    findWorstP[6,5]  -2.7581324677118585e-01
    x[5,2]    allocateEach[2]  1
    x[5,2]    findWorstP[1,5]  -2.8171460535225368e-01
    x[5,2]    findWorstP[2,5]  -2.6172549019607844e-01
    x[5,2]    findWorstP[3,5]  -1.8859904083708762e-01
    x[5,2]    findWorstP[4,5]  -4.3856635749456091e-01
    x[5,2]    findWorstP[5,1]  3.0715789473684213e-01
    x[5,2]    findWorstP[5,2]  3.0715789473684213e-01
    x[5,2]    findWorstP[5,3]  3.0715789473684213e-01
    x[5,2]    findWorstP[5,4]  3.0715789473684213e-01
    x[5,2]    findWorstP[5,6]  3.0715789473684213e-01
    x[5,2]    findWorstP[6,5]  -3.0347399682298504e-01
    x[5,3]    allocateEach[3]  1
    x[5,3]    findWorstP[1,5]  -2.8827980098330730e-01
    x[5,3]    findWorstP[2,5]  -2.5952941176470595e-01
    x[5,3]    findWorstP[3,5]  -1.7424792908007555e-01
    x[5,3]    findWorstP[4,5]  -1.5991068361387842e-01
    x[5,3]    findWorstP[5,1]  2.2743859649122811e-01
    x[5,3]    findWorstP[5,2]  2.2743859649122811e-01
    x[5,3]    findWorstP[5,3]  2.2743859649122811e-01
    x[5,3]    findWorstP[5,4]  2.2743859649122811e-01
    x[5,3]    findWorstP[5,6]  2.2743859649122811e-01
    x[5,3]    findWorstP[6,5]  -2.5595690310104285e-01
    x[5,4]    allocateEach[4]  1
    x[5,4]    findWorstP[1,5]  -2.3095946065298673e-01
    x[5,4]    findWorstP[2,5]  -7.3921568627450987e-02
    x[5,4]    findWorstP[3,5]  -3.1267257666036913e-01
    x[5,4]    findWorstP[4,5]  -3.1174854002061153e-01
    x[5,4]    findWorstP[5,1]  3.4782456140350881e-01
    x[5,4]    findWorstP[5,2]  3.4782456140350881e-01
    x[5,4]    findWorstP[5,3]  3.4782456140350881e-01
    x[5,4]    findWorstP[5,4]  3.4782456140350881e-01
    x[5,4]    findWorstP[5,6]  3.4782456140350881e-01
    x[5,4]    findWorstP[6,5]  -1.1295669590441329e-01
    x[6,1]    allocateEach[1]  1
    x[6,1]    findWorstP[1,6]  -1.5488562428239175e-01
    x[6,1]    findWorstP[2,6]  -3.4600000000000003e-01
    x[6,1]    findWorstP[3,6]  -2.6998256067432053e-01
    x[6,1]    findWorstP[4,6]  -3.8932783694034128e-03
    x[6,1]    findWorstP[5,6]  -6.4947368421052629e-02
    x[6,1]    findWorstP[6,1]  2.7581324677118585e-01
    x[6,1]    findWorstP[6,2]  2.7581324677118585e-01
    x[6,1]    findWorstP[6,3]  2.7581324677118585e-01
    x[6,1]    findWorstP[6,4]  2.7581324677118585e-01
    x[6,1]    findWorstP[6,5]  2.7581324677118585e-01
    x[6,2]    allocateEach[2]  1
    x[6,2]    findWorstP[1,6]  -2.8171460535225368e-01
    x[6,2]    findWorstP[2,6]  -2.6172549019607844e-01
    x[6,2]    findWorstP[3,6]  -1.8859904083708762e-01
    x[6,2]    findWorstP[4,6]  -4.3856635749456091e-01
    x[6,2]    findWorstP[5,6]  -3.0715789473684213e-01
    x[6,2]    findWorstP[6,1]  3.0347399682298504e-01
    x[6,2]    findWorstP[6,2]  3.0347399682298504e-01
    x[6,2]    findWorstP[6,3]  3.0347399682298504e-01
    x[6,2]    findWorstP[6,4]  3.0347399682298504e-01
    x[6,2]    findWorstP[6,5]  3.0347399682298504e-01
    x[6,3]    allocateEach[3]  1
    x[6,3]    findWorstP[1,6]  -2.8827980098330730e-01
    x[6,3]    findWorstP[2,6]  -2.5952941176470595e-01
    x[6,3]    findWorstP[3,6]  -1.7424792908007555e-01
    x[6,3]    findWorstP[4,6]  -1.5991068361387842e-01
    x[6,3]    findWorstP[5,6]  -2.2743859649122811e-01
    x[6,3]    findWorstP[6,1]  2.5595690310104285e-01
    x[6,3]    findWorstP[6,2]  2.5595690310104285e-01
    x[6,3]    findWorstP[6,3]  2.5595690310104285e-01
    x[6,3]    findWorstP[6,4]  2.5595690310104285e-01
    x[6,3]    findWorstP[6,5]  2.5595690310104285e-01
    x[6,4]    allocateEach[4]  1
    x[6,4]    findWorstP[1,6]  -2.3095946065298673e-01
    x[6,4]    findWorstP[2,6]  -7.3921568627450987e-02
    x[6,4]    findWorstP[3,6]  -3.1267257666036913e-01
    x[6,4]    findWorstP[4,6]  -3.1174854002061153e-01
    x[6,4]    findWorstP[5,6]  -3.4782456140350881e-01
    x[6,4]    findWorstP[6,1]  1.1295669590441329e-01
    x[6,4]    findWorstP[6,2]  1.1295669590441329e-01
    x[6,4]    findWorstP[6,3]  1.1295669590441329e-01
    x[6,4]    findWorstP[6,4]  1.1295669590441329e-01
    x[6,4]    findWorstP[6,5]  1.1295669590441329e-01
    MARKER    'MARKER'                 'INTEND'
RHS
    RHS1      allocateEach[1]  1
    RHS1      allocateEach[2]  1
    RHS1      allocateEach[3]  1
    RHS1      allocateEach[4]  1
    RHS1      allocateAllCash  1
BOUNDS
 UP BND1      z         1
 MI BND1      cashProportion[1]
 UP BND1      cashProportion[1]  1
 MI BND1      cashProportion[2]
 UP BND1      cashProportion[2]  1
 MI BND1      cashProportion[3]
 UP BND1      cashProportion[3]  1
 MI BND1      cashProportion[4]
 UP BND1      cashProportion[4]  1
 MI BND1      cashProportion[5]
 UP BND1      cashProportion[5]  1
 MI BND1      cashProportion[6]
 UP BND1      cashProportion[6]  1
 BV BND1      x[1,1]  
 BV BND1      x[1,2]  
 BV BND1      x[1,3]  
 BV BND1      x[1,4]  
 BV BND1      x[2,1]  
 BV BND1      x[2,2]  
 BV BND1      x[2,3]  
 BV BND1      x[2,4]  
 BV BND1      x[3,1]  
 BV BND1      x[3,2]  
 BV BND1      x[3,3]  
 BV BND1      x[3,4]  
 BV BND1      x[4,1]  
 BV BND1      x[4,2]  
 BV BND1      x[4,3]  
 BV BND1      x[4,4]  
 BV BND1      x[5,1]  
 BV BND1      x[5,2]  
 BV BND1      x[5,3]  
 BV BND1      x[5,4]  
 BV BND1      x[6,1]  
 BV BND1      x[6,2]  
 BV BND1      x[6,3]  
 BV BND1      x[6,4]  
ENDATA
